3010.25
0 1 2 3 4 7 9 11 0
0 6 10 12 13 15 16 17 19 24 25 29 31 51 50 0
0 18 20 21 22 23 26 27 30 32 33 34 53 0
0 36 37 38 40 41 42 72 68 5 0
0 43 45 47 48 49 63 44 0
0 52 55 56 57 60 61 62 64 66 67 73 76 84 92 46 0
0 77 78 79 81 82 86 89 90 94 97 85 80 28 71 14 0
0 95 91 75 87 39 0
0 88 98 83 65 58 59 35 0
0 93 96 99 70 0
0 100 54 8 69 74 0
